-817 -885 0
-39 -19 -197 129 0
733 75 1 0
734 136 1 0
-883 -68 -885 0
-884 -885 0
-885 0
-69 0
1 0
817 0
137 0
-749 0
-205 0
-9 0
157 0
757 0
57 0
217 0
353 0
601 0
737 0
-225 0
-89 0
-825 0
-689 0
-629 0
-125 0
-685 0
-109 0
-129 0
-765 0
-785 0
-189 0
-285 0
-845 0
-149 0
-421 0
-669 0
-533 0
-19 0
-805 0
373 0
25 0
77 0
237 0
837 0
677 0
541 0
481 0
777 0
273 0
873 0
833 0
537 0
257 0
857 0
277 0
877 0
17 0
617 0
37 0
637 0
337 0
41 0
433 0
0
